; benchmark generated from python API
(set-info :status unknown)
(declare-datatypes ((IntState 0)) (((Mk1 (val1 Int)) (Mk2 (val2 Int)))))
 (declare-fun c_main_~i~6 () Int)
(declare-fun c_main_~j~6 () Int)
(declare-fun c_main_~k~6 () Int)
(assert
 (let (($x39 (<= c_main_~i~6 3)))
 (let (($x22 (exists ((v_nnf_96_st IntState) (val!9 Int) )(let ((?x56 (val2 v_nnf_96_st)))
 (let (($x102 (<= ?x56 4)))
 (let (($x15 (and (<= (+ ?x56 2) c_main_~k~6) (<= c_main_~j~6 (+ (* 2 ?x56) 2)) $x102)))
 (let (($x52 (not (= v_nnf_96_st (Mk1 val!9)))))
 (and $x52 $x15))))))
 ))
 (let (($x76 (<= c_main_~i~6 2)))
 (let (($x124 (<= c_main_~i~6 4)))
 (let (($x33 (<= c_main_~j~6 (+ (* 2 c_main_~i~6) 1))))
 (let ((?x35 (* 2 c_main_~i~6)))
 (let (($x79 (<= c_main_~j~6 ?x35)))
 (let (($x60 (exists ((v_nnf_96 Int) )(let (($x97 (<= v_nnf_96 4)))
 (and (<= (+ v_nnf_96 2) c_main_~k~6) (<= c_main_~j~6 (+ (* 2 v_nnf_96) 2)) $x97)))
 ))
 (and (and $x33 $x124 $x76 $x60 $x79 $x39) (not (and $x33 $x124 $x76 $x22 $x39))))))))))))
(check-sat)
